Optimal - objective value 3210000.00000000
      0 C0000000               0                       0
      1 C0000001               0                       0
      2 C0000002               0                       0
      3 C0000003               0                       0
      4 C0000004               0                       0
      5 C0000005               0                       0
      6 C0000006               0                       0
      7 C0000007               0                       0
      8 C0000008               0                       0
      9 C0000009               0                       0
     10 C0000010               0                       0
     11 C0000011      -1.4205794                       0
     12 C0000012              18                       0
     13 C0000013            1080                       0
      0 X0000000               0                       0
      1 X0000001               0                       0
      2 X0000002               0                       0
      3 X0000003               0                       0
      4 X0000004               0                       0
      5 X0000005               0                       0
      6 X0000006               0                       0
      7 X0000007               0                       0
      8 X0000008               0                       0
      9 X0000009               0                       0
     10 X0000010               0                       0
     11 X0000011              18                       0
     12 X0000012               0                 1290000
     13 X0000013               0                 1454000
     14 X0000014               0                 1454000
     15 X0000015               0                 1290000
     16 X0000016               0                 1110000
     17 X0000017               0                 1274000
     18 X0000018               0                 1274000
     19 X0000019               0                 1110000
     20 X0000020               0                 1070000
     21 X0000021               0                 1234000
     22 X0000022               0                 1234000
     23 X0000023               3                 1070000
